
Welcome to IBM(R) ILOG(R) CPLEX(R) Interactive Optimizer 22.1.1.0
  with Simplex, Mixed Integer & Barrier Optimizers
5725-A06 5725-A29 5724-Y48 5724-Y49 5724-Y54 5724-Y55 5655-Y21
Copyright IBM Corp. 1988, 2022.  All Rights Reserved.

Type 'help' for a list of available commands.
Type 'help' followed by a command name for more
information on commands.

CPLEX> New value for default parallel thread count: 1
CPLEX> New value for time limit in seconds: 20
CPLEX> New value for mixed integer optimality gap tolerance: 0
CPLEX> Problem 'results\sealed_closure_round\raw\moderate_seed3301_auto_oracle\interval_2.lp' read.
Read time = 0.00 sec. (0.57 ticks)
CPLEX> Version identifier: 22.1.1.0 | 2022-11-27 | 9160aff4d
CPXPARAM_Threads                                 1
CPXPARAM_TimeLimit                               20
CPXPARAM_MIP_Tolerances_MIPGap                   0
Tried aggregator 2 times.
MIP Presolve eliminated 169 rows and 41 columns.
MIP Presolve modified 672 coefficients.
Aggregator did 62 substitutions.
Reduced MIP has 4828 rows, 2014 columns, and 22726 nonzeros.
Reduced MIP has 1455 binaries, 192 generals, 0 SOSs, and 0 indicators.
Presolve time = 0.02 sec. (23.78 ticks)
Probing fixed 6 vars, tightened 27 bounds.
Probing time = 0.03 sec. (80.81 ticks)
Cover probing fixed 0 vars, tightened 3 bounds.
Tried aggregator 1 time.
Detecting symmetries...
MIP Presolve eliminated 63 rows and 46 columns.
MIP Presolve modified 51 coefficients.
Reduced MIP has 4765 rows, 1968 columns, and 22031 nonzeros.
Reduced MIP has 1439 binaries, 180 generals, 0 SOSs, and 0 indicators.
Presolve time = 0.02 sec. (18.42 ticks)
Probing time = 0.02 sec. (24.88 ticks)
Cover probing fixed 0 vars, tightened 20 bounds.
Clique table members: 11863.
MIP emphasis: balance optimality and feasibility.
MIP search method: dynamic search.
Parallel mode: none, using 1 thread.
Root relaxation solution time = 0.08 sec. (195.10 ticks)

        Nodes                                         Cuts/
   Node  Left     Objective  IInf  Best Integer    Best Bound    ItCnt     Gap

      0     0        0.0420   212                      0.0420     1743
      0     0        0.0450   128                    Cuts: 99     2087
      0     0        0.0472   236                   Cuts: 121     3231
      0     0        0.0473   250                   Cuts: 141     4062
      0     0        0.0473   256                    Cuts: 83     4375
      0     0        0.0473   205                     Cuts: 9     4486
      0     0        0.0473   223                    Cuts: 91     4674
Detecting symmetries...
      0     2        0.0473   210                      0.0473     4674
Elapsed time = 1.06 sec. (2844.20 ticks, tree = 0.01 MB, solutions = 0)
     14    16        0.0483   220                      0.0473     6400
     48    50        0.0487   140                      0.0473     8086
     70    66        0.0481   175                      0.0475     9114
    108    98        0.0487   129                      0.0475    10758
    118   102        0.0478   183                      0.0475    12576
    150   132        0.0491   109                      0.0475    13810
    191   157        0.0487   135                      0.0475    15172
    224   182        0.0483   113                      0.0476    16367
    264   222        0.0488   106                      0.0476    18149
    320   274        0.0489    77                      0.0476    24291
Elapsed time = 2.19 sec. (6055.74 ticks, tree = 5.83 MB, solutions = 0)
    412   346        0.0479   224                      0.0476    30000
    525   425        0.0476   143                      0.0476    35171
    589   471        0.0488   146                      0.0477    38811
    714   566        0.0488    79                      0.0477    44564
    784   612    infeasible                            0.0477    49144
    933   729    infeasible                            0.0477    54392

Performing restart 1

Repeating presolve.
Tried aggregator 1 time.
MIP Presolve eliminated 21 rows and 11 columns.
MIP Presolve modified 177 coefficients.
Reduced MIP has 4744 rows, 1957 columns, and 21969 nonzeros.
Reduced MIP has 1435 binaries, 177 generals, 0 SOSs, and 0 indicators.
Presolve time = 0.02 sec. (22.53 ticks)
Tried aggregator 1 time.
MIP Presolve modified 36 coefficients.
Reduced MIP has 4744 rows, 1957 columns, and 21969 nonzeros.
Reduced MIP has 1435 binaries, 177 generals, 0 SOSs, and 0 indicators.
Presolve time = 0.02 sec. (12.18 ticks)
Represolve time = 0.08 sec. (146.15 ticks)
    994     0        0.0476   143                    Cuts: 28    61830
    994     0        0.0477   265                   Cuts: 245    62991
    994     0        0.0477   261                   Cuts: 226    65180
    994     0        0.0479   255                   Cuts: 257    68994
    994     0        0.0480   273                   Cuts: 313    71553
    994     0        0.0480   267                   Cuts: 233    73420
    994     0        0.0480   346                   Cuts: 253    76185
    994     0        0.0480   275                   Cuts: 259    83787
    994     0        0.0480   314                   Cuts: 362    87151
    994     0        0.0480   261                   Cuts: 343    89556
    994     0        0.0480   262                   Cuts: 264    91474
    994     0        0.0480   137                    Cuts: 10    91535
    994     0        0.0480   202                   Cuts: 193    92066
    994     0        0.0480   160                    Cuts: 24    92445
    994     0        0.0480   156                   Cuts: 228    92739
    994     0        0.0480   140                    Cuts: 52    92900
    994     0        0.0480   202                   Cuts: 125    93374
    994     2        0.0480   152                      0.0480    93374
    997     5        0.0481   138                      0.0480    94856
    999     7        0.0486   224                      0.0480    97056
   1008    13    infeasible                            0.0480    97283
Elapsed time = 14.47 sec. (37964.16 ticks, tree = 0.25 MB, solutions = 0)
   1024    19        0.0482   169                      0.0481    97833
   1036    28        0.0490   175                      0.0481    98183
   1049    32        0.0483   168                      0.0481    99213
   1079    56        0.0490   166                      0.0481   101040
   1089    62    infeasible                            0.0481   104359
   1102    64    infeasible                            0.0481   108270
   1148    97        0.0489   173                      0.0483   110571
   1153   102        0.0489   129                      0.0483   112859
   1166   108    infeasible                            0.0483   116743
   1196   126        0.0483   174                      0.0483   118389
Elapsed time = 18.52 sec. (49581.22 ticks, tree = 2.37 MB, solutions = 0)
   1208   128    infeasible                            0.0483   121670
   1252   144        0.0486   159                      0.0484   123378
   1291   165        0.0491   202                      0.0484   126400

Cover cuts applied:  13
Implied bound cuts applied:  21
Flow cuts applied:  46
Mixed integer rounding cuts applied:  196
Zero-half cuts applied:  7
Lift and project cuts applied:  6
Gomory fractional cuts applied:  8

Root node processing (before b&c):
  Real time             =    1.05 sec. (2804.27 ticks)
Sequential b&c:
  Real time             =   18.97 sec. (51096.17 ticks)
                          ------------
Total (root+branch&cut) =   20.02 sec. (53900.44 ticks)


MIP - Time limit exceeded, no integer solution.
Current MIP best bound =  4.8415998548e-02 (gap is infinite)
Solution time =   20.02 sec.  Iterations = 130273  Nodes = 1325 (182)
Deterministic time = 53900.45 ticks  (2692.87 ticks/sec)

CPLEX> CPLEX Error  1217: No solution exists.
No file written.
CPLEX>
